p cnf 361 1
361 0
w 1 0.222672
w 2 1 0.685658
w 2 -1 0.205608
w 3 2 0
w 3 -2 1
w 4 3 0.638356
w 4 -3 0.828405
w 5 4 0
w 5 -4 1
w 6 5 0
w 6 -5 1
w 7 6 1
w 7 -6 0
w 8 7 0.173183
w 8 -7 0.377335
w 9 8 0
w 9 -8 1
w 10 9 1
w 10 -9 0
w 11 10 0.188759
w 11 -10 0.837951
w 12 11 0
w 12 -11 1
w 13 12 0
w 13 -12 1
w 14 13 1
w 14 -13 0
w 15 14 0.650457
w 15 -14 0.603133
w 16 15 0.822524
w 16 -15 0.335059
w 17 16 0.46088
w 17 -16 0.163465
w 18 17 0.166687
w 18 -17 0.323851
w 19 18 0
w 19 -18 1
w 20 1 0
w 20 -1 1
w 21 20 2 0
w 21 20 -2 1
w 21 -20 2 1
w 21 -20 -2 1
w 22 21 3 0.727213
w 22 21 -3 0.0301025
w 22 -21 3 0.399538
w 22 -21 -3 0.941566
w 23 22 4 1
w 23 22 -4 0
w 23 -22 4 1
w 23 -22 -4 1
w 24 23 5 0
w 24 23 -5 0
w 24 -23 5 0
w 24 -23 -5 1
w 25 24 6 0.773192
w 25 24 -6 0.264848
w 25 -24 6 0.70555
w 25 -24 -6 0.630068
w 26 25 7 0
w 26 25 -7 1
w 26 -25 7 0
w 26 -25 -7 0
w 27 26 8 0.129438
w 27 26 -8 0.837557
w 27 -26 8 0.450694
w 27 -26 -8 0.862193
w 28 27 9 0.0122809
w 28 27 -9 0.589407
w 28 -27 9 0.709002
w 28 -27 -9 0.411819
w 29 28 10 0.00346762
w 29 28 -10 0.0982375
w 29 -28 10 0.0132059
w 29 -28 -10 0.334455
w 30 29 11 0.258778
w 30 29 -11 0.315899
w 30 -29 11 0.909157
w 30 -29 -11 0.473298
w 31 30 12 1
w 31 30 -12 1
w 31 -30 12 0
w 31 -30 -12 0
w 32 31 13 0.816249
w 32 31 -13 0.186193
w 32 -31 13 0.669955
w 32 -31 -13 0.510144
w 33 32 14 0
w 33 32 -14 1
w 33 -32 14 1
w 33 -32 -14 1
w 34 33 15 0.947461
w 34 33 -15 0.672031
w 34 -33 15 0.0911832
w 34 -33 -15 0.656464
w 35 34 16 0
w 35 34 -16 0
w 35 -34 16 1
w 35 -34 -16 1
w 36 35 17 0.884218
w 36 35 -17 0.89414
w 36 -35 17 0.310286
w 36 -35 -17 0.793375
w 37 36 18 0
w 37 36 -18 0
w 37 -36 18 0
w 37 -36 -18 1
w 38 37 19 1
w 38 37 -19 0
w 38 -37 19 0
w 38 -37 -19 1
w 39 20 1
w 39 -20 0
w 40 39 21 1
w 40 39 -21 0
w 40 -39 21 0
w 40 -39 -21 0
w 41 40 22 0
w 41 40 -22 1
w 41 -40 22 1
w 41 -40 -22 0
w 42 41 23 0.551027
w 42 41 -23 0.967214
w 42 -41 23 0.631321
w 42 -41 -23 0.545414
w 43 42 24 0.525461
w 43 42 -24 0.855699
w 43 -42 24 0.644807
w 43 -42 -24 0.892898
w 44 43 25 0
w 44 43 -25 0
w 44 -43 25 0
w 44 -43 -25 1
w 45 44 26 0.87844
w 45 44 -26 0.157749
w 45 -44 26 0.873097
w 45 -44 -26 0.897049
w 46 45 27 0.653941
w 46 45 -27 0.18422
w 46 -45 27 0.55649
w 46 -45 -27 0.936561
w 47 46 28 1
w 47 46 -28 0
w 47 -46 28 0
w 47 -46 -28 0
w 48 47 29 0.0101069
w 48 47 -29 0.937645
w 48 -47 29 0.406389
w 48 -47 -29 0.861539
w 49 48 30 0
w 49 48 -30 1
w 49 -48 30 0
w 49 -48 -30 1
w 50 49 31 0
w 50 49 -31 0
w 50 -49 31 0
w 50 -49 -31 1
w 51 50 32 1
w 51 50 -32 1
w 51 -50 32 0
w 51 -50 -32 1
w 52 51 33 0.907534
w 52 51 -33 0.646317
w 52 -51 33 0.101623
w 52 -51 -33 0.844095
w 53 52 34 0
w 53 52 -34 1
w 53 -52 34 1
w 53 -52 -34 0
w 54 53 35 1
w 54 53 -35 1
w 54 -53 35 1
w 54 -53 -35 0
w 55 54 36 0
w 55 54 -36 0
w 55 -54 36 0
w 55 -54 -36 1
w 56 55 37 0
w 56 55 -37 1
w 56 -55 37 0
w 56 -55 -37 0
w 57 56 38 0.481667
w 57 56 -38 0.427701
w 57 -56 38 0.958393
w 57 -56 -38 0.73526
w 58 39 0.503525
w 58 -39 0.642794
w 59 58 40 0.605148
w 59 58 -40 0.48689
w 59 -58 40 0.601283
w 59 -58 -40 0.964538
w 60 59 41 0.9764
w 60 59 -41 0.366822
w 60 -59 41 0.102134
w 60 -59 -41 0.212493
w 61 60 42 0.500563
w 61 60 -42 0.854974
w 61 -60 42 0.0531408
w 61 -60 -42 0.362097
w 62 61 43 0.833416
w 62 61 -43 0.579635
w 62 -61 43 0.212056
w 62 -61 -43 0.00946218
w 63 62 44 0.313228
w 63 62 -44 0.872116
w 63 -62 44 0.600507
w 63 -62 -44 0.794895
w 64 63 45 1
w 64 63 -45 0
w 64 -63 45 1
w 64 -63 -45 0
w 65 64 46 0
w 65 64 -46 1
w 65 -64 46 1
w 65 -64 -46 1
w 66 65 47 0.301189
w 66 65 -47 0.303412
w 66 -65 47 0.998933
w 66 -65 -47 0.403323
w 67 66 48 0.778145
w 67 66 -48 0.903886
w 67 -66 48 0.370879
w 67 -66 -48 0.831286
w 68 67 49 1
w 68 67 -49 0
w 68 -67 49 0
w 68 -67 -49 1
w 69 68 50 0.50562
w 69 68 -50 0.655708
w 69 -68 50 0.546279
w 69 -68 -50 0.106127
w 70 69 51 1
w 70 69 -51 1
w 70 -69 51 1
w 70 -69 -51 0
w 71 70 52 0.153708
w 71 70 -52 0.76144
w 71 -70 52 0.395025
w 71 -70 -52 0.813548
w 72 71 53 0
w 72 71 -53 0
w 72 -71 53 1
w 72 -71 -53 1
w 73 72 54 0.90777
w 73 72 -54 0.804214
w 73 -72 54 0.421947
w 73 -72 -54 0.278649
w 74 73 55 0.68793
w 74 73 -55 0.409073
w 74 -73 55 0.300202
w 74 -73 -55 0.533548
w 75 74 56 0.974365
w 75 74 -56 0.0391679
w 75 -74 56 0.407261
w 75 -74 -56 0.520645
w 76 75 57 1
w 76 75 -57 1
w 76 -75 57 0
w 76 -75 -57 0
w 77 58 1
w 77 -58 0
w 78 77 59 0.163893
w 78 77 -59 0.932798
w 78 -77 59 0.805878
w 78 -77 -59 0.252345
w 79 78 60 0.920616
w 79 78 -60 0.64421
w 79 -78 60 0.986004
w 79 -78 -60 0.438676
w 80 79 61 0.790219
w 80 79 -61 0.860623
w 80 -79 61 0.830629
w 80 -79 -61 0.425719
w 81 80 62 0.239702
w 81 80 -62 0.72592
w 81 -80 62 0.0821004
w 81 -80 -62 0.991255
w 82 81 63 0.121268
w 82 81 -63 0.398516
w 82 -81 63 0.22093
w 82 -81 -63 0.266563
w 83 82 64 1
w 83 82 -64 0
w 83 -82 64 1
w 83 -82 -64 1
w 84 83 65 0.0873327
w 84 83 -65 0.154016
w 84 -83 65 0.547456
w 84 -83 -65 0.893211
w 85 84 66 0
w 85 84 -66 0
w 85 -84 66 1
w 85 -84 -66 1
w 86 85 67 0
w 86 85 -67 0
w 86 -85 67 1
w 86 -85 -67 0
w 87 86 68 0.661678
w 87 86 -68 0.672881
w 87 -86 68 0.435253
w 87 -86 -68 0.743779
w 88 87 69 0.135538
w 88 87 -69 0.865047
w 88 -87 69 0.0626519
w 88 -87 -69 0.356468
w 89 88 70 0
w 89 88 -70 1
w 89 -88 70 1
w 89 -88 -70 1
w 90 89 71 0.823152
w 90 89 -71 0.501366
w 90 -89 71 0.0882791
w 90 -89 -71 0.370608
w 91 90 72 1
w 91 90 -72 0
w 91 -90 72 1
w 91 -90 -72 0
w 92 91 73 0
w 92 91 -73 1
w 92 -91 73 0
w 92 -91 -73 1
w 93 92 74 0.364339
w 93 92 -74 0.235711
w 93 -92 74 0.253823
w 93 -92 -74 0.799592
w 94 93 75 0.917959
w 94 93 -75 0.93513
w 94 -93 75 0.844536
w 94 -93 -75 0.980611
w 95 94 76 0
w 95 94 -76 0
w 95 -94 76 1
w 95 -94 -76 1
w 96 77 0.170002
w 96 -77 0.00779334
w 97 96 78 0
w 97 96 -78 0
w 97 -96 78 0
w 97 -96 -78 1
w 98 97 79 1
w 98 97 -79 0
w 98 -97 79 1
w 98 -97 -79 1
w 99 98 80 1
w 99 98 -80 0
w 99 -98 80 0
w 99 -98 -80 1
w 100 99 81 1
w 100 99 -81 1
w 100 -99 81 1
w 100 -99 -81 0
w 101 100 82 0
w 101 100 -82 0
w 101 -100 82 1
w 101 -100 -82 0
w 102 101 83 0
w 102 101 -83 1
w 102 -101 83 0
w 102 -101 -83 0
w 103 102 84 0
w 103 102 -84 1
w 103 -102 84 0
w 103 -102 -84 0
w 104 103 85 0.835239
w 104 103 -85 0.388535
w 104 -103 85 0.343877
w 104 -103 -85 0.114171
w 105 104 86 0.626678
w 105 104 -86 0.967136
w 105 -104 86 0.861266
w 105 -104 -86 0.273818
w 106 105 87 0
w 106 105 -87 1
w 106 -105 87 0
w 106 -105 -87 0
w 107 106 88 0
w 107 106 -88 1
w 107 -106 88 1
w 107 -106 -88 0
w 108 107 89 0.685073
w 108 107 -89 0.999012
w 108 -107 89 0.191199
w 108 -107 -89 0.764274
w 109 108 90 0
w 109 108 -90 1
w 109 -108 90 0
w 109 -108 -90 0
w 110 109 91 0
w 110 109 -91 0
w 110 -109 91 1
w 110 -109 -91 0
w 111 110 92 0
w 111 110 -92 0
w 111 -110 92 1
w 111 -110 -92 0
w 112 111 93 0.418316
w 112 111 -93 0.220982
w 112 -111 93 0.712339
w 112 -111 -93 0.758861
w 113 112 94 0
w 113 112 -94 1
w 113 -112 94 0
w 113 -112 -94 0
w 114 113 95 0
w 114 113 -95 0
w 114 -113 95 0
w 114 -113 -95 1
w 115 96 0.0672757
w 115 -96 0.65037
w 116 115 97 0
w 116 115 -97 0
w 116 -115 97 1
w 116 -115 -97 1
w 117 116 98 1
w 117 116 -98 1
w 117 -116 98 1
w 117 -116 -98 0
w 118 117 99 0
w 118 117 -99 1
w 118 -117 99 0
w 118 -117 -99 0
w 119 118 100 1
w 119 118 -100 1
w 119 -118 100 1
w 119 -118 -100 0
w 120 119 101 0.847833
w 120 119 -101 0.304847
w 120 -119 101 0.630304
w 120 -119 -101 0.316317
w 121 120 102 0.384149
w 121 120 -102 0.383593
w 121 -120 102 0.503831
w 121 -120 -102 0.67797
w 122 121 103 0
w 122 121 -103 1
w 122 -121 103 1
w 122 -121 -103 1
w 123 122 104 0
w 123 122 -104 0
w 123 -122 104 0
w 123 -122 -104 1
w 124 123 105 0.630965
w 124 123 -105 0.954698
w 124 -123 105 0.255716
w 124 -123 -105 0.728811
w 125 124 106 0
w 125 124 -106 1
w 125 -124 106 0
w 125 -124 -106 0
w 126 125 107 0.726859
w 126 125 -107 0.966009
w 126 -125 107 0.975403
w 126 -125 -107 0.357163
w 127 126 108 1
w 127 126 -108 0
w 127 -126 108 0
w 127 -126 -108 1
w 128 127 109 0
w 128 127 -109 0
w 128 -127 109 1
w 128 -127 -109 0
w 129 128 110 1
w 129 128 -110 0
w 129 -128 110 1
w 129 -128 -110 1
w 130 129 111 0.779231
w 130 129 -111 0.409868
w 130 -129 111 0.924076
w 130 -129 -111 0.0349463
w 131 130 112 0
w 131 130 -112 1
w 131 -130 112 1
w 131 -130 -112 1
w 132 131 113 0.959286
w 132 131 -113 0.908938
w 132 -131 113 0.666759
w 132 -131 -113 0.934689
w 133 132 114 1
w 133 132 -114 1
w 133 -132 114 0
w 133 -132 -114 1
w 134 115 0
w 134 -115 1
w 135 134 116 0
w 135 134 -116 1
w 135 -134 116 0
w 135 -134 -116 1
w 136 135 117 0
w 136 135 -117 1
w 136 -135 117 0
w 136 -135 -117 0
w 137 136 118 0
w 137 136 -118 0
w 137 -136 118 1
w 137 -136 -118 1
w 138 137 119 0
w 138 137 -119 0
w 138 -137 119 1
w 138 -137 -119 0
w 139 138 120 0.513971
w 139 138 -120 0.0447668
w 139 -138 120 0.608781
w 139 -138 -120 0.780072
w 140 139 121 0.372335
w 140 139 -121 0.787484
w 140 -139 121 0.608855
w 140 -139 -121 0.468583
w 141 140 122 0
w 141 140 -122 1
w 141 -140 122 0
w 141 -140 -122 0
w 142 141 123 1
w 142 141 -123 0
w 142 -141 123 1
w 142 -141 -123 1
w 143 142 124 0.551565
w 143 142 -124 0.454065
w 143 -142 124 0.902754
w 143 -142 -124 0.977643
w 144 143 125 0.580012
w 144 143 -125 0.692449
w 144 -143 125 0.482054
w 144 -143 -125 0.958019
w 145 144 126 0
w 145 144 -126 0
w 145 -144 126 1
w 145 -144 -126 0
w 146 145 127 0.347657
w 146 145 -127 0.563581
w 146 -145 127 0.605493
w 146 -145 -127 0.81624
w 147 146 128 0.562145
w 147 146 -128 0.0601259
w 147 -146 128 0.0657665
w 147 -146 -128 0.800788
w 148 147 129 0.452401
w 148 147 -129 0.156961
w 148 -147 129 0.276286
w 148 -147 -129 0.716568
w 149 148 130 0.0843563
w 149 148 -130 0.268133
w 149 -148 130 0.0541071
w 149 -148 -130 0.98711
w 150 149 131 1
w 150 149 -131 0
w 150 -149 131 1
w 150 -149 -131 0
w 151 150 132 0.304765
w 151 150 -132 0.409207
w 151 -150 132 0.527928
w 151 -150 -132 0.280088
w 152 151 133 1
w 152 151 -133 0
w 152 -151 133 1
w 152 -151 -133 1
w 153 134 1
w 153 -134 0
w 154 153 135 0.50411
w 154 153 -135 0.592412
w 154 -153 135 0.492993
w 154 -153 -135 0.0320623
w 155 154 136 1
w 155 154 -136 0
w 155 -154 136 0
w 155 -154 -136 0
w 156 155 137 1
w 156 155 -137 1
w 156 -155 137 0
w 156 -155 -137 0
w 157 156 138 0.213515
w 157 156 -138 0.648412
w 157 -156 138 0.472078
w 157 -156 -138 0.51828
w 158 157 139 0
w 158 157 -139 0
w 158 -157 139 0
w 158 -157 -139 1
w 159 158 140 1
w 159 158 -140 0
w 159 -158 140 1
w 159 -158 -140 1
w 160 159 141 0
w 160 159 -141 1
w 160 -159 141 0
w 160 -159 -141 1
w 161 160 142 0
w 161 160 -142 1
w 161 -160 142 1
w 161 -160 -142 0
w 162 161 143 0
w 162 161 -143 1
w 162 -161 143 1
w 162 -161 -143 0
w 163 162 144 1
w 163 162 -144 0
w 163 -162 144 0
w 163 -162 -144 1
w 164 163 145 0.98514
w 164 163 -145 0.906157
w 164 -163 145 0.752026
w 164 -163 -145 0.228063
w 165 164 146 1
w 165 164 -146 1
w 165 -164 146 0
w 165 -164 -146 0
w 166 165 147 0.432195
w 166 165 -147 0.42244
w 166 -165 147 0.849188
w 166 -165 -147 0.272023
w 167 166 148 0.00486593
w 167 166 -148 0.761805
w 167 -166 148 0.543325
w 167 -166 -148 0.921925
w 168 167 149 0.650645
w 168 167 -149 0.868499
w 168 -167 149 0.545461
w 168 -167 -149 0.137781
w 169 168 150 0
w 169 168 -150 0
w 169 -168 150 1
w 169 -168 -150 0
w 170 169 151 0
w 170 169 -151 1
w 170 -169 151 1
w 170 -169 -151 1
w 171 170 152 0.814889
w 171 170 -152 0.409565
w 171 -170 152 0.185165
w 171 -170 -152 0.900248
w 172 153 1
w 172 -153 0
w 173 172 154 0
w 173 172 -154 1
w 173 -172 154 0
w 173 -172 -154 1
w 174 173 155 0.36627
w 174 173 -155 0.252273
w 174 -173 155 0.699466
w 174 -173 -155 0.867852
w 175 174 156 0.567965
w 175 174 -156 0.413312
w 175 -174 156 0.0406989
w 175 -174 -156 0.658328
w 176 175 157 1
w 176 175 -157 0
w 176 -175 157 0
w 176 -175 -157 1
w 177 176 158 0.727207
w 177 176 -158 0.474715
w 177 -176 158 0.894896
w 177 -176 -158 0.692501
w 178 177 159 1
w 178 177 -159 0
w 178 -177 159 1
w 178 -177 -159 0
w 179 178 160 0.522295
w 179 178 -160 0.6425
w 179 -178 160 0.573828
w 179 -178 -160 0.12676
w 180 179 161 0
w 180 179 -161 1
w 180 -179 161 1
w 180 -179 -161 0
w 181 180 162 0
w 181 180 -162 1
w 181 -180 162 1
w 181 -180 -162 0
w 182 181 163 0
w 182 181 -163 1
w 182 -181 163 1
w 182 -181 -163 0
w 183 182 164 0
w 183 182 -164 0
w 183 -182 164 1
w 183 -182 -164 0
w 184 183 165 1
w 184 183 -165 1
w 184 -183 165 0
w 184 -183 -165 0
w 185 184 166 0
w 185 184 -166 0
w 185 -184 166 0
w 185 -184 -166 1
w 186 185 167 0.0802358
w 186 185 -167 0.0257765
w 186 -185 167 0.346702
w 186 -185 -167 0.683957
w 187 186 168 0
w 187 186 -168 1
w 187 -186 168 0
w 187 -186 -168 1
w 188 187 169 0.972543
w 188 187 -169 0.493856
w 188 -187 169 0.897825
w 188 -187 -169 0.433742
w 189 188 170 0
w 189 188 -170 1
w 189 -188 170 0
w 189 -188 -170 1
w 190 189 171 0.646926
w 190 189 -171 0.888197
w 190 -189 171 0.902002
w 190 -189 -171 0.946352
w 191 172 0
w 191 -172 1
w 192 191 173 1
w 192 191 -173 0
w 192 -191 173 1
w 192 -191 -173 1
w 193 192 174 0.747114
w 193 192 -174 0.0200995
w 193 -192 174 0.481269
w 193 -192 -174 0.823727
w 194 193 175 0.671866
w 194 193 -175 0.51914
w 194 -193 175 0.209463
w 194 -193 -175 0.4098
w 195 194 176 1
w 195 194 -176 1
w 195 -194 176 0
w 195 -194 -176 1
w 196 195 177 1
w 196 195 -177 1
w 196 -195 177 0
w 196 -195 -177 1
w 197 196 178 1
w 197 196 -178 1
w 197 -196 178 1
w 197 -196 -178 0
w 198 197 179 0.0646014
w 198 197 -179 0.130063
w 198 -197 179 0.669179
w 198 -197 -179 0.785939
w 199 198 180 0.46649
w 199 198 -180 0.533053
w 199 -198 180 0.82356
w 199 -198 -180 0.947759
w 200 199 181 0
w 200 199 -181 1
w 200 -199 181 0
w 200 -199 -181 1
w 201 200 182 1
w 201 200 -182 0
w 201 -200 182 1
w 201 -200 -182 1
w 202 201 183 0.792947
w 202 201 -183 0.776866
w 202 -201 183 0.0876437
w 202 -201 -183 0.122275
w 203 202 184 0.158963
w 203 202 -184 0.339799
w 203 -202 184 0.802492
w 203 -202 -184 0.176633
w 204 203 185 0.754594
w 204 203 -185 0.241235
w 204 -203 185 0.780201
w 204 -203 -185 0.423773
w 205 204 186 1
w 205 204 -186 1
w 205 -204 186 0
w 205 -204 -186 1
w 206 205 187 0.917007
w 206 205 -187 0.958465
w 206 -205 187 0.457647
w 206 -205 -187 0.792928
w 207 206 188 0.487072
w 207 206 -188 0.160531
w 207 -206 188 0.183196
w 207 -206 -188 0.824123
w 208 207 189 0
w 208 207 -189 1
w 208 -207 189 1
w 208 -207 -189 1
w 209 208 190 0.0691038
w 209 208 -190 0.0930532
w 209 -208 190 0.0791444
w 209 -208 -190 0.871595
w 210 191 0
w 210 -191 1
w 211 210 192 0.510921
w 211 210 -192 0.509483
w 211 -210 192 0.049962
w 211 -210 -192 0.538095
w 212 211 193 0
w 212 211 -193 1
w 212 -211 193 1
w 212 -211 -193 1
w 213 212 194 0
w 213 212 -194 1
w 213 -212 194 1
w 213 -212 -194 1
w 214 213 195 0.968789
w 214 213 -195 0.361197
w 214 -213 195 0.547089
w 214 -213 -195 0.422349
w 215 214 196 0
w 215 214 -196 1
w 215 -214 196 0
w 215 -214 -196 0
w 216 215 197 1
w 216 215 -197 0
w 216 -215 197 1
w 216 -215 -197 1
w 217 216 198 0
w 217 216 -198 1
w 217 -216 198 1
w 217 -216 -198 1
w 218 217 199 1
w 218 217 -199 0
w 218 -217 199 1
w 218 -217 -199 0
w 219 218 200 0.273751
w 219 218 -200 0.223992
w 219 -218 200 0.475401
w 219 -218 -200 0.451752
w 220 219 201 0.44419
w 220 219 -201 0.812949
w 220 -219 201 0.494046
w 220 -219 -201 0.866539
w 221 220 202 1
w 221 220 -202 1
w 221 -220 202 1
w 221 -220 -202 0
w 222 221 203 1
w 222 221 -203 1
w 222 -221 203 1
w 222 -221 -203 0
w 223 222 204 1
w 223 222 -204 0
w 223 -222 204 1
w 223 -222 -204 0
w 224 223 205 1
w 224 223 -205 1
w 224 -223 205 1
w 224 -223 -205 0
w 225 224 206 0.789431
w 225 224 -206 0.880928
w 225 -224 206 0.745899
w 225 -224 -206 0.264832
w 226 225 207 0
w 226 225 -207 0
w 226 -225 207 0
w 226 -225 -207 1
w 227 226 208 0.166221
w 227 226 -208 0.845107
w 227 -226 208 0.0948743
w 227 -226 -208 0.328548
w 228 227 209 1
w 228 227 -209 0
w 228 -227 209 0
w 228 -227 -209 0
w 229 210 0.20746
w 229 -210 0.225068
w 230 229 211 0.685159
w 230 229 -211 0.549027
w 230 -229 211 0.0147076
w 230 -229 -211 0.477415
w 231 230 212 0
w 231 230 -212 1
w 231 -230 212 1
w 231 -230 -212 0
w 232 231 213 0.350642
w 232 231 -213 0.191257
w 232 -231 213 0.298199
w 232 -231 -213 0.0434987
w 233 232 214 0.443828
w 233 232 -214 0.230401
w 233 -232 214 0.475838
w 233 -232 -214 0.610049
w 234 233 215 0
w 234 233 -215 1
w 234 -233 215 0
w 234 -233 -215 0
w 235 234 216 0.433497
w 235 234 -216 0.0775169
w 235 -234 216 0.291509
w 235 -234 -216 0.640957
w 236 235 217 0
w 236 235 -217 0
w 236 -235 217 1
w 236 -235 -217 1
w 237 236 218 0.934448
w 237 236 -218 0.987445
w 237 -236 218 0.888122
w 237 -236 -218 0.539192
w 238 237 219 0.853642
w 238 237 -219 0.889834
w 238 -237 219 0.105128
w 238 -237 -219 0.151841
w 239 238 220 0.00540661
w 239 238 -220 0.595669
w 239 -238 220 0.163734
w 239 -238 -220 0.481245
w 240 239 221 0
w 240 239 -221 1
w 240 -239 221 0
w 240 -239 -221 0
w 241 240 222 0.808573
w 241 240 -222 0.155064
w 241 -240 222 0.0362555
w 241 -240 -222 0.100082
w 242 241 223 0.338841
w 242 241 -223 0.935824
w 242 -241 223 0.122137
w 242 -241 -223 0.190453
w 243 242 224 0.925667
w 243 242 -224 0.124902
w 243 -242 224 0.773718
w 243 -242 -224 0.813789
w 244 243 225 0.687589
w 244 243 -225 0.667431
w 244 -243 225 0.553928
w 244 -243 -225 0.792717
w 245 244 226 0.487261
w 245 244 -226 0.798124
w 245 -244 226 0.414941
w 245 -244 -226 0.650995
w 246 245 227 1
w 246 245 -227 1
w 246 -245 227 0
w 246 -245 -227 1
w 247 246 228 0.290065
w 247 246 -228 0.573548
w 247 -246 228 0.766869
w 247 -246 -228 0.326321
w 248 229 0.56289
w 248 -229 0.665162
w 249 248 230 0.685027
w 249 248 -230 0.855615
w 249 -248 230 0.395727
w 249 -248 -230 0.610694
w 250 249 231 0.169445
w 250 249 -231 0.424484
w 250 -249 231 0.64461
w 250 -249 -231 0.857034
w 251 250 232 1
w 251 250 -232 1
w 251 -250 232 1
w 251 -250 -232 0
w 252 251 233 0
w 252 251 -233 1
w 252 -251 233 0
w 252 -251 -233 1
w 253 252 234 0
w 253 252 -234 1
w 253 -252 234 1
w 253 -252 -234 1
w 254 253 235 1
w 254 253 -235 0
w 254 -253 235 0
w 254 -253 -235 0
w 255 254 236 0
w 255 254 -236 1
w 255 -254 236 0
w 255 -254 -236 0
w 256 255 237 1
w 256 255 -237 1
w 256 -255 237 1
w 256 -255 -237 0
w 257 256 238 0.0193963
w 257 256 -238 0.64035
w 257 -256 238 0.891902
w 257 -256 -238 0.705195
w 258 257 239 0
w 258 257 -239 0
w 258 -257 239 1
w 258 -257 -239 0
w 259 258 240 0.876579
w 259 258 -240 0.107856
w 259 -258 240 0.222673
w 259 -258 -240 0.161889
w 260 259 241 0.897628
w 260 259 -241 0.120828
w 260 -259 241 0.882156
w 260 -259 -241 0.237746
w 261 260 242 0.735779
w 261 260 -242 0.433478
w 261 -260 242 0.653341
w 261 -260 -242 0.200096
w 262 261 243 0.786906
w 262 261 -243 0.088896
w 262 -261 243 0.430585
w 262 -261 -243 0.777505
w 263 262 244 1
w 263 262 -244 0
w 263 -262 244 0
w 263 -262 -244 0
w 264 263 245 0
w 264 263 -245 0
w 264 -263 245 1
w 264 -263 -245 1
w 265 264 246 0
w 265 264 -246 1
w 265 -264 246 0
w 265 -264 -246 0
w 266 265 247 0
w 266 265 -247 1
w 266 -265 247 0
w 266 -265 -247 1
w 267 248 1
w 267 -248 0
w 268 267 249 0.84622
w 268 267 -249 0.105631
w 268 -267 249 0.596837
w 268 -267 -249 0.633127
w 269 268 250 1
w 269 268 -250 1
w 269 -268 250 0
w 269 -268 -250 1
w 270 269 251 0.225651
w 270 269 -251 0.632579
w 270 -269 251 0.334568
w 270 -269 -251 0.405194
w 271 270 252 0.656117
w 271 270 -252 0.749555
w 271 -270 252 0.295927
w 271 -270 -252 0.851703
w 272 271 253 0.869967
w 272 271 -253 0.269962
w 272 -271 253 0.353324
w 272 -271 -253 0.157568
w 273 272 254 0.856982
w 273 272 -254 0.327325
w 273 -272 254 0.139482
w 273 -272 -254 0.0498612
w 274 273 255 1
w 274 273 -255 0
w 274 -273 255 1
w 274 -273 -255 1
w 275 274 256 0.533019
w 275 274 -256 0.750852
w 275 -274 256 0.93984
w 275 -274 -256 0.797158
w 276 275 257 1
w 276 275 -257 0
w 276 -275 257 1
w 276 -275 -257 1
w 277 276 258 1
w 277 276 -258 0
w 277 -276 258 0
w 277 -276 -258 0
w 278 277 259 0.148054
w 278 277 -259 0.856471
w 278 -277 259 0.880677
w 278 -277 -259 0.501378
w 279 278 260 0
w 279 278 -260 0
w 279 -278 260 1
w 279 -278 -260 0
w 280 279 261 0
w 280 279 -261 1
w 280 -279 261 0
w 280 -279 -261 1
w 281 280 262 1
w 281 280 -262 1
w 281 -280 262 0
w 281 -280 -262 1
w 282 281 263 0
w 282 281 -263 0
w 282 -281 263 0
w 282 -281 -263 1
w 283 282 264 0.693706
w 283 282 -264 0.986545
w 283 -282 264 0.403589
w 283 -282 -264 0.871265
w 284 283 265 0.0143041
w 284 283 -265 0.0193183
w 284 -283 265 0.829519
w 284 -283 -265 0.894981
w 285 284 266 0.843558
w 285 284 -266 0.361507
w 285 -284 266 0.879057
w 285 -284 -266 0.184922
w 286 267 0.287279
w 286 -267 0.759147
w 287 286 268 0.591582
w 287 286 -268 0.671864
w 287 -286 268 0.156145
w 287 -286 -268 0.425093
w 288 287 269 0
w 288 287 -269 1
w 288 -287 269 1
w 288 -287 -269 0
w 289 288 270 0.626197
w 289 288 -270 0.0941323
w 289 -288 270 0.384701
w 289 -288 -270 0.319903
w 290 289 271 1
w 290 289 -271 1
w 290 -289 271 1
w 290 -289 -271 0
w 291 290 272 1
w 291 290 -272 1
w 291 -290 272 0
w 291 -290 -272 1
w 292 291 273 0
w 292 291 -273 1
w 292 -291 273 0
w 292 -291 -273 1
w 293 292 274 0.726712
w 293 292 -274 0.4891
w 293 -292 274 0.342738
w 293 -292 -274 0.882857
w 294 293 275 0.460338
w 294 293 -275 0.245884
w 294 -293 275 0.112638
w 294 -293 -275 0.820833
w 295 294 276 1
w 295 294 -276 0
w 295 -294 276 0
w 295 -294 -276 0
w 296 295 277 0.218857
w 296 295 -277 0.0257528
w 296 -295 277 0.958099
w 296 -295 -277 0.272583
w 297 296 278 0.168585
w 297 296 -278 0.155828
w 297 -296 278 0.52592
w 297 -296 -278 0.899767
w 298 297 279 0.585002
w 298 297 -279 0.510006
w 298 -297 279 0.794358
w 298 -297 -279 0.611598
w 299 298 280 1
w 299 298 -280 0
w 299 -298 280 1
w 299 -298 -280 0
w 300 299 281 1
w 300 299 -281 0
w 300 -299 281 0
w 300 -299 -281 0
w 301 300 282 1
w 301 300 -282 1
w 301 -300 282 0
w 301 -300 -282 1
w 302 301 283 0
w 302 301 -283 0
w 302 -301 283 1
w 302 -301 -283 1
w 303 302 284 1
w 303 302 -284 0
w 303 -302 284 1
w 303 -302 -284 1
w 304 303 285 0
w 304 303 -285 1
w 304 -303 285 0
w 304 -303 -285 0
w 305 286 0.247082
w 305 -286 0.438769
w 306 305 287 0.143705
w 306 305 -287 0.246739
w 306 -305 287 0.149777
w 306 -305 -287 0.954522
w 307 306 288 0.616828
w 307 306 -288 0.877977
w 307 -306 288 0.604188
w 307 -306 -288 0.127926
w 308 307 289 0.140358
w 308 307 -289 0.777204
w 308 -307 289 0.667878
w 308 -307 -289 0.44346
w 309 308 290 0.707312
w 309 308 -290 0.704661
w 309 -308 290 0.786057
w 309 -308 -290 0.575093
w 310 309 291 0
w 310 309 -291 1
w 310 -309 291 1
w 310 -309 -291 0
w 311 310 292 0.303557
w 311 310 -292 0.23532
w 311 -310 292 0.537798
w 311 -310 -292 0.550638
w 312 311 293 0.466409
w 312 311 -293 0.694343
w 312 -311 293 0.920827
w 312 -311 -293 0.616186
w 313 312 294 0.435874
w 313 312 -294 0.233014
w 313 -312 294 0.526843
w 313 -312 -294 0.0400619
w 314 313 295 1
w 314 313 -295 1
w 314 -313 295 0
w 314 -313 -295 1
w 315 314 296 0.783483
w 315 314 -296 0.556229
w 315 -314 296 0.328541
w 315 -314 -296 0.569541
w 316 315 297 0
w 316 315 -297 0
w 316 -315 297 0
w 316 -315 -297 1
w 317 316 298 0.0476135
w 317 316 -298 0.230543
w 317 -316 298 0.149247
w 317 -316 -298 0.585412
w 318 317 299 0.823335
w 318 317 -299 0.051821
w 318 -317 299 0.475525
w 318 -317 -299 0.744162
w 319 318 300 0.12439
w 319 318 -300 0.180036
w 319 -318 300 0.901021
w 319 -318 -300 0.651233
w 320 319 301 0
w 320 319 -301 1
w 320 -319 301 1
w 320 -319 -301 1
w 321 320 302 0.0243981
w 321 320 -302 0.18359
w 321 -320 302 0.237416
w 321 -320 -302 0.352939
w 322 321 303 0.368738
w 322 321 -303 0.815927
w 322 -321 303 0.405275
w 322 -321 -303 0.468854
w 323 322 304 0.319202
w 323 322 -304 0.516468
w 323 -322 304 0.973457
w 323 -322 -304 0.468449
w 324 305 1
w 324 -305 0
w 325 324 306 1
w 325 324 -306 0
w 325 -324 306 0
w 325 -324 -306 1
w 326 325 307 1
w 326 325 -307 1
w 326 -325 307 0
w 326 -325 -307 1
w 327 326 308 0.838058
w 327 326 -308 0.836599
w 327 -326 308 0.384798
w 327 -326 -308 0.519246
w 328 327 309 0.568387
w 328 327 -309 0.756663
w 328 -327 309 0.213936
w 328 -327 -309 0.321517
w 329 328 310 0
w 329 328 -310 1
w 329 -328 310 0
w 329 -328 -310 1
w 330 329 311 1
w 330 329 -311 0
w 330 -329 311 1
w 330 -329 -311 1
w 331 330 312 0.806227
w 331 330 -312 0.366304
w 331 -330 312 0.731035
w 331 -330 -312 0.842173
w 332 331 313 0
w 332 331 -313 1
w 332 -331 313 0
w 332 -331 -313 0
w 333 332 314 0
w 333 332 -314 1
w 333 -332 314 0
w 333 -332 -314 0
w 334 333 315 1
w 334 333 -315 1
w 334 -333 315 1
w 334 -333 -315 0
w 335 334 316 0
w 335 334 -316 1
w 335 -334 316 0
w 335 -334 -316 0
w 336 335 317 1
w 336 335 -317 0
w 336 -335 317 0
w 336 -335 -317 0
w 337 336 318 1
w 337 336 -318 0
w 337 -336 318 0
w 337 -336 -318 0
w 338 337 319 1
w 338 337 -319 0
w 338 -337 319 0
w 338 -337 -319 0
w 339 338 320 1
w 339 338 -320 0
w 339 -338 320 1
w 339 -338 -320 1
w 340 339 321 0.741625
w 340 339 -321 0.180824
w 340 -339 321 0.737668
w 340 -339 -321 0.946968
w 341 340 322 0.907804
w 341 340 -322 0.277712
w 341 -340 322 0.0222228
w 341 -340 -322 0.804732
w 342 341 323 1
w 342 341 -323 0
w 342 -341 323 1
w 342 -341 -323 1
w 343 324 1
w 343 -324 0
w 344 343 325 0.468612
w 344 343 -325 0.10139
w 344 -343 325 0.827331
w 344 -343 -325 0.574377
w 345 344 326 0.0994668
w 345 344 -326 0.738298
w 345 -344 326 0.617419
w 345 -344 -326 0.462978
w 346 345 327 0
w 346 345 -327 1
w 346 -345 327 0
w 346 -345 -327 1
w 347 346 328 0
w 347 346 -328 0
w 347 -346 328 1
w 347 -346 -328 0
w 348 347 329 0.722228
w 348 347 -329 0.175084
w 348 -347 329 0.565492
w 348 -347 -329 0.924939
w 349 348 330 1
w 349 348 -330 1
w 349 -348 330 1
w 349 -348 -330 0
w 350 349 331 0.23177
w 350 349 -331 0.986778
w 350 -349 331 0.751523
w 350 -349 -331 0.0591005
w 351 350 332 0.655557
w 351 350 -332 0.158567
w 351 -350 332 0.299453
w 351 -350 -332 0.272975
w 352 351 333 0.695907
w 352 351 -333 0.499213
w 352 -351 333 0.377469
w 352 -351 -333 0.0813536
w 353 352 334 0.875017
w 353 352 -334 0.647623
w 353 -352 334 0.467457
w 353 -352 -334 0.319533
w 354 353 335 0.228216
w 354 353 -335 0.0417613
w 354 -353 335 0.975569
w 354 -353 -335 0.793708
w 355 354 336 0.381283
w 355 354 -336 0.106854
w 355 -354 336 0.130073
w 355 -354 -336 0.972269
w 356 355 337 0.780205
w 356 355 -337 0.204039
w 356 -355 337 0.611798
w 356 -355 -337 0.531728
w 357 356 338 1
w 357 356 -338 0
w 357 -356 338 0
w 357 -356 -338 1
w 358 357 339 0
w 358 357 -339 0
w 358 -357 339 1
w 358 -357 -339 1
w 359 358 340 1
w 359 358 -340 0
w 359 -358 340 0
w 359 -358 -340 0
w 360 359 341 0.697775
w 360 359 -341 0.269647
w 360 -359 341 0.657032
w 360 -359 -341 0.673344
w 361 360 342 1
w 361 360 -342 0
w 361 -360 342 1
w 361 -360 -342 1